DIMACS2
80 79 140 220 245 248 175 212 281 303 219 113 58 172 90 69 62 287 251 157 185 144 230 307 41 240 203 133 89 173 141 22 302 213 50 33 308 1 316 236 205 0 63 300 274 207 149 259 95 57 271 225 112 239 12 27 49 228 209 263 266 77 131 164 31 187 237 134 101 61 195 123 68 94 122 183 238 231 270 194 226
p edge 320 2514
e 0 103 24.0
e 0 59 27.0
e 0 44 44.0
e 0 271 32.0
e 0 286 2.0
e 0 128 20.0
e 0 188 13.0
e 0 81 28.0
e 1 245 10.0
e 1 42 46.0
e 1 281 22.0
e 1 61 15.0
e 1 180 20.0
e 1 252 31.0
e 1 303 48.0
e 1 156 34.0
e 2 111 1.0
e 2 255 1.0
e 2 205 9.0
e 2 9 1.0
e 2 18 1.0
e 2 150 1.0
e 2 315 1.0
e 2 60 1.0
e 3 57 31.0
e 3 6 1.0
e 3 17 1.0
e 3 99 1.0
e 3 160 2.0
e 3 264 1.0
e 3 211 1.0
e 3 114 1.0
e 4 267 1.0
e 4 112 47.0
e 4 115 1.0
e 4 292 1.0
e 4 313 1.0
e 4 265 1.0
e 4 41 44.0
e 4 87 1.0
e 5 222 1.0
e 5 230 48.0
e 5 131 19.0
e 5 41 36.0
e 5 193 1.0
e 5 61 16.0
e 5 234 1.0
e 5 76 1.0
e 6 108 1.0
e 6 233 1.0
e 6 282 1.0
e 6 4 1.0
e 6 55 1.0
e 6 117 1.0
e 6 75 1.0
e 6 140 22.0
e 7 264 1.0
e 7 38 1.0
e 7 5 1.0
e 7 282 1.0
e 7 166 1.0
e 7 311 1.0
e 7 51 1.0
e 7 312 1.0
e 8 191 1.0
e 8 114 1.0
e 8 194 47.0
e 8 185 26.0
e 8 218 1.0
e 8 12 26.0
e 8 100 1.0
e 8 212 1.0
e 9 3 1.0
e 9 234 1.0
e 9 154 1.0
e 9 82 1.0
e 9 218 1.0
e 9 60 1.0
e 9 118 1.0
e 9 21 1.0
e 10 235 1.0
e 10 4 1.0
e 10 52 1.0
e 10 147 1.0
e 10 136 1.0
e 10 31 23.0
e 10 199 1.0
e 10 84 1.0
e 11 24 1.0
e 11 244 1.0
e 11 208 1.0
e 11 278 1.0
e 11 66 1.0
e 11 265 1.0
e 11 38 1.0
e 11 222 1.0
e 12 176 17.0
e 12 203 43.0
e 12 277 16.0
e 12 154 34.0
e 12 180 5.0
e 12 273 31.0
e 12 123 43.0
e 12 225 44.0
e 13 151 1.0
e 13 252 1.0
e 13 230 47.0
e 13 122 31.0
e 13 43 1.0
e 13 265 1.0
e 13 91 1.0
e 13 120 1.0
e 14 37 1.0
e 14 154 1.0
e 14 110 1.0
e 14 151 1.0
e 14 104 1.0
e 14 205 27.0
e 14 181 2.0
e 15 257 1.0
e 15 25 1.0
e 15 133 6.0
e 15 184 1.0
e 15 64 1.0
e 15 258 1.0
e 15 271 6.0
e 15 144 14.0
e 16 42 1.0
e 16 82 2.0
e 16 211 1.0
e 16 306 2.0
e 16 191 1.0
e 16 87 2.0
e 16 304 2.0
e 16 315 1.0
e 17 175 27.0
e 17 310 1.0
e 17 76 1.0
e 17 23 1.0
e 17 64 1.0
e 17 100 1.0
e 17 209 45.0
e 17 52 1.0
e 18 306 1.0
e 18 93 1.0
e 18 250 1.0
e 18 186 1.0
e 18 0 7.0
e 18 145 1.0
e 18 203 10.0
e 18 147 1.0
e 19 220 32.0
e 19 124 1.0
e 19 298 1.0
e 19 282 1.0
e 19 185 36.0
e 19 94 1.0
e 19 114 1.0
e 19 25 1.0
e 20 65 1.0
e 20 216 1.0
e 20 165 1.0
e 20 288 1.0
e 20 10 1.0
e 20 284 1.0
e 20 36 1.0
e 20 208 1.0
e 21 200 1.0
e 21 123 18.0
e 21 223 1.0
e 21 124 1.0
e 21 258 1.0
e 21 229 1.0
e 21 307 45.0
e 21 152 1.0
e 22 306 49.0
e 22 129 17.0
e 22 99 5.0
e 22 56 2.0
e 22 55 35.0
e 22 62 29.0
e 22 176 22.0
e 22 238 25.0
e 23 159 1.0
e 23 111 1.0
e 23 85 1.0
e 23 219 33.0
e 23 100 1.0
e 23 273 1.0
e 23 197 1.0
e 23 300 41.0
e 24 18 1.0
e 24 169 1.0
e 24 317 1.0
e 24 54 1.0
e 24 203 36.0
e 24 214 1.0
e 24 190 1.0
e 24 201 1.0
e 25 78 1.0
e 25 70 1.0
e 25 316 29.0
e 25 236 29.0
e 25 142 1.0
e 25 2 1.0
e 25 43 1.0
e 25 80 3.0
e 26 230 21.0
e 26 290 1.0
e 26 126 1.0
e 26 38 1.0
e 26 166 1.0
e 26 119 1.0
e 26 19 1.0
e 26 171 1.0
e 27 94 41.0
e 27 281 28.0
e 27 141 27.0
e 27 260 14.0
e 27 101 28.0
e 27 119 10.0
e 27 236 49.0
e 27 216 15.0
e 28 311 1.0
e 28 247 1.0
e 28 244 1.0
e 28 204 1.0
e 28 17 1.0
e 28 177 1.0
e 28 1 1.0
e 28 291 1.0
e 29 126 1.0
e 29 63 27.0
e 29 15 1.0
e 29 241 1.0
e 29 65 1.0
e 29 303 45.0
e 29 152 1.0
e 29 179 1.0
e 30 242 1.0
e 30 115 1.0
e 30 257 1.0
e 30 199 1.0
e 30 260 1.0
e 30 214 1.0
e 30 184 1.0
e 30 246 1.0
e 31 104 9.0
e 31 127 17.0
e 31 28 37.0
e 31 152 31.0
e 31 295 39.0
e 31 222 13.0
e 31 245 24.0
e 31 161 21.0
e 32 13 1.0
e 32 275 1.0
e 32 204 1.0
e 32 175 29.0
e 32 0 27.0
e 32 49 7.0
e 32 29 1.0
e 32 310 1.0
e 33 39 10.0
e 33 57 31.0
e 33 252 2.0
e 33 205 20.0
e 33 60 28.0
e 33 20 17.0
e 33 289 9.0
e 34 274 40.0
e 34 204 1.0
e 34 113 32.0
e 34 146 1.0
e 34 290 1.0
e 34 5 1.0
e 34 287 40.0
e 34 258 1.0
e 35 269 1.0
e 35 117 1.0
e 35 263 35.0
e 35 118 1.0
e 35 163 1.0
e 35 7 1.0
e 35 68 30.0
e 35 186 1.0
e 36 71 1.0
e 36 305 1.0
e 36 147 1.0
e 36 81 1.0
e 36 2 1.0
e 36 133 22.0
e 36 80 1.0
e 36 97 1.0
e 37 185 25.0
e 37 57 47.0
e 37 283 1.0
e 37 34 1.0
e 37 22 1.0
e 37 194 37.0
e 37 77 39.0
e 37 236 6.0
e 38 34 1.0
e 38 64 1.0
e 38 288 1.0
e 38 128 1.0
e 38 76 1.0
e 38 241 1.0
e 38 244 1.0
e 38 143 1.0
e 39 103 1.0
e 39 119 1.0
e 39 28 1.0
e 39 98 1.0
e 39 318 1.0
e 39 38 1.0
e 39 264 1.0
e 40 136 1.0
e 40 295 1.0
e 40 265 1.0
e 40 153 1.0
e 40 89 10.0
e 40 133 43.0
e 40 48 2.0
e 40 204 1.0
e 41 195 46.0
e 41 228 4.0
e 41 250 10.0
e 41 70 48.0
e 41 22 9.0
e 41 164 32.0
e 41 135 48.0
e 41 246 44.0
e 42 215 1.0
e 42 207 20.0
e 42 53 1.0
e 42 159 1.0
e 42 188 1.0
e 42 100 1.0
e 42 198 1.0
e 42 246 1.0
e 43 197 1.0
e 43 142 1.0
e 43 141 9.0
e 43 301 1.0
e 43 148 1.0
e 43 53 1.0
e 43 178 1.0
e 43 259 32.0
e 44 124 1.0
e 44 115 1.0
e 44 82 1.0
e 44 273 1.0
e 44 98 1.0
e 44 267 1.0
e 44 218 1.0
e 44 275 1.0
e 45 68 42.0
e 45 233 1.0
e 45 92 1.0
e 45 266 39.0
e 45 178 1.0
e 45 0 31.0
e 45 97 1.0
e 45 208 1.0
e 46 256 1.0
e 46 306 2.0
e 46 249 2.0
e 46 143 1.0
e 46 2 2.0
e 46 91 1.0
e 46 35 1.0
e 46 184 1.0
e 47 187 17.0
e 47 206 1.0
e 47 221 1.0
e 47 130 2.0
e 47 103 1.0
e 47 124 1.0
e 47 182 1.0
e 47 168 1.0
e 48 101 49.0
e 48 186 1.0
e 48 67 1.0
e 48 298 2.0
e 48 189 2.0
e 48 108 2.0
e 48 54 1.0
e 48 305 2.0
e 49 47 10.0
e 49 120 21.0
e 49 146 8.0
e 49 262 14.0
e 49 136 44.0
e 49 220 31.0
e 49 38 35.0
e 49 245 11.0
e 50 198 24.0
e 50 24 29.0
e 50 70 46.0
e 50 288 20.0
e 50 195 33.0
e 50 196 12.0
e 50 124 46.0
e 51 154 1.0
e 51 142 1.0
e 51 100 1.0
e 51 165 1.0
e 51 264 1.0
e 51 195 28.0
e 51 287 45.0
e 51 1 4.0
e 52 261 1.0
e 52 245 24.0
e 52 186 1.0
e 52 19 1.0
e 52 302 37.0
e 52 204 1.0
e 52 53 1.0
e 52 82 1.0
e 53 207 24.0
e 53 27 26.0
e 53 160 1.0
e 53 166 1.0
e 53 36 1.0
e 53 67 1.0
e 53 303 36.0
e 53 262 1.0
e 54 96 1.0
e 54 102 1.0
e 54 192 2.0
e 54 60 1.0
e 54 41 42.0
e 54 88 1.0
e 54 303 45.0
e 54 123 33.0
e 55 141 31.0
e 55 312 1.0
e 55 85 1.0
e 55 253 1.0
e 55 249 1.0
e 55 8 1.0
e 55 219 43.0
e 55 69 30.0
e 56 50 17.0
e 56 70 1.0
e 56 7 1.0
e 56 186 1.0
e 56 64 1.0
e 56 272 1.0
e 56 29 1.0
e 56 51 1.0
e 57 211 36.0
e 57 114 21.0
e 57 2 39.0
e 57 209 36.0
e 57 74 21.0
e 57 222 28.0
e 57 23 48.0
e 57 104 45.0
e 58 307 33.0
e 58 303 6.0
e 58 214 34.0
e 58 8 32.0
e 58 257 2.0
e 58 134 42.0
e 58 263 5.0
e 58 248 48.0
e 59 145 1.0
e 59 123 49.0
e 59 92 1.0
e 59 201 1.0
e 59 223 1.0
e 59 23 1.0
e 59 176 1.0
e 59 234 1.0
e 60 87 1.0
e 60 184 1.0
e 60 36 1.0
e 60 95 42.0
e 60 297 1.0
e 60 134 2.0
e 60 255 1.0
e 60 168 1.0
e 61 259 15.0
e 61 282 32.0
e 61 67 25.0
e 61 4 49.0
e 61 276 15.0
e 61 170 29.0
e 61 58 45.0
e 61 140 42.0
e 62 303 6.0
e 62 256 10.0
e 62 58 21.0
e 62 244 37.0
e 62 280 40.0
e 62 76 19.0
e 62 91 19.0
e 62 300 40.0
e 63 267 44.0
e 63 14 14.0
e 63 20 49.0
e 63 312 35.0
e 63 146 15.0
e 63 90 42.0
e 63 210 35.0
e 63 42 39.0
e 64 110 1.0
e 64 93 1.0
e 64 232 1.0
e 64 253 1.0
e 64 156 1.0
e 64 70 1.0
e 64 143 1.0
e 64 237 44.0
e 65 37 1.0
e 65 157 2.0
e 65 47 1.0
e 65 12 38.0
e 65 312 1.0
e 65 58 28.0
e 65 278 1.0
e 65 127 1.0
e 66 84 1.0
e 66 22 42.0
e 66 251 14.0
e 66 51 1.0
e 66 15 1.0
e 66 82 1.0
e 66 207 4.0
e 66 46 2.0
e 67 264 1.0
e 67 313 1.0
e 67 74 1.0
e 67 35 1.0
e 67 147 1.0
e 67 66 1.0
e 67 95 29.0
e 68 173 11.0
e 68 210 22.0
e 68 269 41.0
e 68 310 43.0
e 68 114 8.0
e 68 62 8.0
e 68 289 38.0
e 68 271 21.0
e 69 103 10.0
e 69 146 9.0
e 69 37 44.0
e 69 168 2.0
e 69 144 12.0
e 69 94 37.0
e 69 95 5.0
e 69 143 27.0
e 70 152 1.0
e 70 92 1.0
e 70 303 40.0
e 70 39 1.0
e 70 284 1.0
e 70 246 1.0
e 70 306 1.0
e 70 4 1.0
e 71 190 1.0
e 71 97 1.0
e 71 141 39.0
e 71 138 1.0
e 71 197 1.0
e 71 26 1.0
e 71 132 1.0
e 71 85 1.0
e 72 79 7.0
e 72 210 1.0
e 72 304 1.0
e 72 204 1.0
e 72 231 48.0
e 72 264 1.0
e 72 270 22.0
e 72 56 1.0
e 73 114 1.0
e 73 14 1.0
e 73 55 1.0
e 73 228 32.0
e 73 245 35.0
e 73 214 1.0
e 73 188 1.0
e 73 295 1.0
e 74 264 1.0
e 74 125 1.0
e 74 194 20.0
e 74 135 1.0
e 74 210 1.0
e 74 202 1.0
e 74 22 46.0
e 74 5 1.0
e 75 271 9.0
e 75 137 1.0
e 75 12 46.0
e 75 58 15.0
e 75 74 1.0
e 75 134 39.0
e 75 272 1.0
e 75 174 1.0
e 76 239 36.0
e 76 65 1.0
e 76 51 1.0
e 76 201 1.0
e 76 213 7.0
e 76 304 1.0
e 76 84 1.0
e 76 230 38.0
e 77 298 18.0
e 77 12 44.0
e 77 253 45.0
e 77 162 24.0
e 77 241 25.0
e 77 66 42.0
e 77 284 8.0
e 77 17 8.0
e 78 192 1.0
e 78 134 18.0
e 78 171 1.0
e 78 185 7.0
e 78 207 15.0
e 78 26 1.0
e 78 239 44.0
e 78 107 1.0
e 79 288 29.0
e 79 58 1.0
e 79 272 25.0
e 79 282 13.0
e 79 37 13.0
e 79 73 2.0
e 79 301 24.0
e 79 101 27.0
e 80 167 1.0
e 80 88 1.0
e 80 78 1.0
e 80 124 2.0
e 80 40 1.0
e 80 254 1.0
e 80 311 2.0
e 80 243 1.0
e 81 273 1.0
e 81 16 1.0
e 81 76 1.0
e 81 152 1.0
e 81 89 14.0
e 81 97 1.0
e 81 41 35.0
e 81 284 1.0
e 82 129 1.0
e 82 104 1.0
e 82 46 2.0
e 82 114 1.0
e 82 88 1.0
e 82 75 1.0
e 82 268 1.0
e 83 117 1.0
e 83 217 1.0
e 83 89 37.0
e 83 120 1.0
e 83 277 1.0
e 83 64 1.0
e 83 149 11.0
e 83 242 1.0
e 84 178 1.0
e 84 11 1.0
e 84 12 21.0
e 84 131 19.0
e 84 177 1.0
e 84 108 1.0
e 84 71 1.0
e 84 154 1.0
e 85 61 45.0
e 85 290 1.0
e 85 45 1.0
e 85 3 1.0
e 85 12 29.0
e 85 283 1.0
e 85 112 2.0
e 85 307 1.0
e 86 222 1.0
e 86 35 2.0
e 86 210 1.0
e 86 265 2.0
e 86 17 1.0
e 86 87 1.0
e 86 70 2.0
e 86 0 3.0
e 87 205 41.0
e 87 137 1.0
e 87 40 1.0
e 87 164 5.0
e 87 113 6.0
e 87 74 1.0
e 87 278 1.0
e 87 304 1.0
e 88 183 20.0
e 88 281 44.0
e 88 140 17.0
e 88 142 1.0
e 88 8 1.0
e 88 309 1.0
e 88 266 7.0
e 89 274 20.0
e 89 260 27.0
e 89 122 28.0
e 89 157 18.0
e 89 186 6.0
e 89 104 3.0
e 89 64 42.0
e 89 129 14.0
e 90 164 8.0
e 90 12 22.0
e 90 234 3.0
e 90 104 34.0
e 90 89 24.0
e 90 114 14.0
e 90 57 9.0
e 90 208 12.0
e 91 199 1.0
e 91 285 1.0
e 91 118 1.0
e 91 165 1.0
e 91 251 7.0
e 91 264 1.0
e 91 213 27.0
e 91 65 1.0
e 92 234 3.0
e 92 64 1.0
e 92 85 1.0
e 92 93 2.0
e 92 246 1.0
e 92 289 2.0
e 92 151 1.0
e 93 221 1.0
e 93 60 1.0
e 93 185 40.0
e 93 10 1.0
e 93 58 40.0
e 93 181 1.0
e 93 81 1.0
e 93 140 39.0
e 94 175 49.0
e 94 165 21.0
e 94 231 38.0
e 94 205 39.0
e 94 93 47.0
e 94 142 35.0
e 94 90 39.0
e 94 116 13.0
e 95 96 37.0
e 95 180 19.0
e 95 238 7.0
e 95 119 13.0
e 95 229 19.0
e 95 9 11.0
e 95 285 38.0
e 95 207 6.0
e 96 266 47.0
e 96 299 1.0
e 96 291 1.0
e 96 160 1.0
e 96 2 1.0
e 96 290 1.0
e 96 43 1.0
e 96 269 1.0
e 97 285 1.0
e 97 6 1.0
e 97 162 1.0
e 97 172 46.0
e 97 57 23.0
e 97 152 1.0
e 97 159 1.0
e 97 10 1.0
e 98 103 1.0
e 98 234 1.0
e 98 35 1.0
e 98 50 37.0
e 98 141 26.0
e 98 199 1.0
e 98 186 1.0
e 98 304 1.0
e 99 283 1.0
e 99 277 1.0
e 99 72 1.0
e 99 63 6.0
e 99 109 1.0
e 99 135 1.0
e 99 104 1.0
e 99 85 1.0
e 100 201 1.0
e 100 298 1.0
e 100 299 1.0
e 100 22 21.0
e 100 188 1.0
e 100 247 1.0
e 100 103 1.0
e 101 120 10.0
e 101 172 6.0
e 101 253 47.0
e 101 219 17.0
e 101 280 45.0
e 101 41 31.0
e 101 8 1.0
e 101 78 36.0
e 102 131 26.0
e 102 192 1.0
e 102 292 1.0
e 102 47 1.0
e 102 92 1.0
e 102 210 1.0
e 102 20 1.0
e 102 194 35.0
e 103 246 1.0
e 103 294 1.0
e 103 309 1.0
e 103 131 49.0
e 103 107 1.0
e 103 106 1.0
e 103 52 1.0
e 103 261 1.0
e 104 230 3.0
e 104 255 1.0
e 104 139 1.0
e 104 98 1.0
e 104 71 1.0
e 104 187 11.0
e 104 37 1.0
e 104 110 1.0
e 105 245 14.0
e 105 127 2.0
e 105 291 2.0
e 105 168 2.0
e 105 201 1.0
e 105 84 3.0
e 105 153 2.0
e 105 14 1.0
e 106 149 27.0
e 106 46 1.0
e 106 191 1.0
e 106 128 1.0
e 106 166 1.0
e 106 95 2.0
e 106 225 21.0
e 106 63 48.0
e 107 242 1.0
e 107 14 1.0
e 107 176 1.0
e 107 256 2.0
e 107 4 1.0
e 107 155 1.0
e 107 227 2.0
e 107 276 1.0
e 108 166 1.0
e 108 247 1.0
e 108 94 3.0
e 108 12 14.0
e 108 145 1.0
e 108 298 1.0
e 108 128 1.0
e 108 2 1.0
e 109 317 2.0
e 109 158 1.0
e 109 128 1.0
e 109 222 2.0
e 109 14 2.0
e 109 220 43.0
e 109 46 1.0
e 109 59 1.0
e 110 78 1.0
e 110 176 1.0
e 110 81 1.0
e 110 239 19.0
e 110 178 1.0
e 110 155 1.0
e 110 128 1.0
e 111 79 16.0
e 111 294 1.0
e 111 30 1.0
e 111 230 41.0
e 111 156 1.0
e 111 293 1.0
e 111 142 1.0
e 111 41 31.0
e 112 167 34.0
e 112 199 30.0
e 112 115 24.0
e 112 1 47.0
e 112 189 2.0
e 112 41 45.0
e 112 82 44.0
e 112 60 30.0
e 113 107 22.0
e 113 142 12.0
e 113 183 22.0
e 113 143 3.0
e 113 277 16.0
e 113 12 5.0
e 113 284 8.0
e 113 145 45.0
e 114 194 44.0
e 114 203 35.0
e 114 258 1.0
e 114 24 1.0
e 114 243 1.0
e 114 303 13.0
e 114 173 34.0
e 114 315 1.0
e 115 121 1.0
e 115 15 1.0
e 115 26 1.0
e 115 157 35.0
e 115 34 1.0
e 115 187 34.0
e 115 22 1.0
e 115 190 1.0
e 116 197 1.0
e 116 20 1.0
e 116 108 1.0
e 116 163 1.0
e 116 127 1.0
e 116 98 1.0
e 116 63 15.0
e 117 3 1.0
e 117 78 1.0
e 117 22 23.0
e 117 260 1.0
e 117 34 1.0
e 117 212 16.0
e 117 72 1.0
e 117 84 1.0
e 118 59 1.0
e 118 274 11.0
e 118 191 1.0
e 118 38 1.0
e 118 266 47.0
e 118 120 1.0
e 118 197 1.0
e 119 188 1.0
e 119 79 35.0
e 119 77 30.0
e 119 4 1.0
e 119 8 1.0
e 119 225 8.0
e 119 23 1.0
e 119 52 1.0
e 120 65 1.0
e 120 87 1.0
e 120 148 1.0
e 120 233 1.0
e 120 90 3.0
e 120 311 1.0
e 120 129 1.0
e 120 308 13.0
e 121 227 1.0
e 121 67 1.0
e 121 318 1.0
e 121 284 1.0
e 121 86 1.0
e 121 42 1.0
e 121 100 1.0
e 121 309 1.0
e 122 134 2.0
e 122 166 3.0
e 122 27 23.0
e 122 177 23.0
e 122 118 38.0
e 122 259 11.0
e 122 150 44.0
e 122 79 3.0
e 123 60 46.0
e 123 168 14.0
e 123 88 47.0
e 123 132 16.0
e 123 236 21.0
e 123 69 9.0
e 123 316 31.0
e 123 154 35.0
e 124 128 1.0
e 124 176 1.0
e 124 313 1.0
e 124 209 18.0
e 124 296 1.0
e 124 87 1.0
e 124 247 1.0
e 125 184 1.0
e 125 171 1.0
e 125 236 14.0
e 125 48 2.0
e 125 131 43.0
e 125 80 3.0
e 125 62 22.0
e 125 5 1.0
e 126 294 1.0
e 126 274 42.0
e 126 86 1.0
e 126 246 1.0
e 126 105 1.0
e 126 80 1.0
e 126 276 1.0
e 126 267 1.0
e 127 235 1.0
e 127 0 25.0
e 127 146 1.0
e 127 149 49.0
e 127 314 1.0
e 127 263 6.0
e 127 84 1.0
e 127 54 1.0
e 128 182 1.0
e 128 310 1.0
e 128 306 1.0
e 128 285 1.0
e 128 218 1.0
e 128 239 14.0
e 128 279 1.0
e 128 144 41.0
e 129 213 3.0
e 129 178 1.0
e 129 180 1.0
e 129 0 19.0
e 129 92 2.0
e 129 205 3.0
e 129 306 1.0
e 129 142 1.0
e 130 23 1.0
e 130 232 1.0
e 130 270 40.0
e 130 202 1.0
e 130 37 1.0
e 130 301 1.0
e 130 20 1.0
e 130 44 1.0
e 131 291 9.0
e 131 173 9.0
e 131 293 5.0
e 131 175 14.0
e 131 194 32.0
e 131 193 18.0
e 131 118 11.0
e 132 305 1.0
e 132 189 1.0
e 132 306 1.0
e 132 286 1.0
e 132 67 1.0
e 132 3 1.0
e 132 73 1.0
e 132 25 1.0
e 133 101 9.0
e 133 194 15.0
e 133 218 1.0
e 133 148 48.0
e 133 58 19.0
e 133 23 36.0
e 133 31 15.0
e 134 305 19.0
e 134 159 41.0
e 134 19 19.0
e 134 256 42.0
e 134 214 39.0
e 134 113 8.0
e 134 199 3.0
e 134 80 43.0
e 135 81 1.0
e 135 258 1.0
e 135 164 18.0
e 135 57 1.0
e 135 311 1.0
e 135 227 1.0
e 135 23 1.0
e 135 199 1.0
e 136 169 1.0
e 136 195 5.0
e 136 135 1.0
e 136 152 1.0
e 136 166 1.0
e 136 229 1.0
e 136 130 1.0
e 136 298 1.0
e 137 88 1.0
e 137 185 47.0
e 137 107 1.0
e 137 287 39.0
e 137 180 1.0
e 137 253 1.0
e 137 2 1.0
e 137 171 1.0
e 138 242 1.0
e 138 58 10.0
e 138 290 1.0
e 138 30 1.0
e 138 83 1.0
e 138 29 1.0
e 138 250 1.0
e 138 253 1.0
e 139 125 1.0
e 139 75 1.0
e 139 184 1.0
e 139 280 1.0
e 139 225 35.0
e 139 15 1.0
e 139 256 1.0
e 139 237 17.0
e 140 65 3.0
e 140 164 32.0
e 140 308 47.0
e 140 51 25.0
e 140 166 5.0
e 140 72 34.0
e 140 32 19.0
e 140 111 13.0
e 141 76 34.0
e 141 96 10.0
e 141 58 37.0
e 141 244 40.0
e 141 177 7.0
e 141 159 25.0
e 141 22 5.0
e 142 242 1.0
e 142 262 1.0
e 142 55 1.0
e 142 131 15.0
e 142 288 1.0
e 142 139 1.0
e 142 268 1.0
e 142 69 13.0
e 143 30 1.0
e 143 199 1.0
e 143 296 1.0
e 143 238 19.0
e 143 226 8.0
e 143 183 12.0
e 143 15 1.0
e 143 317 1.0
e 144 191 17.0
e 144 268 32.0
e 144 127 23.0
e 144 64 23.0
e 144 119 16.0
e 144 264 5.0
e 144 202 36.0
e 144 177 20.0
e 145 151 1.0
e 145 312 1.0
e 145 131 26.0
e 145 16 2.0
e 145 32 1.0
e 145 62 27.0
e 145 308 49.0
e 145 165 1.0
e 146 149 48.0
e 146 126 1.0
e 146 222 1.0
e 146 116 1.0
e 146 178 1.0
e 146 13 1.0
e 147 48 2.0
e 147 245 5.0
e 147 161 1.0
e 147 1 38.0
e 147 182 1.0
e 147 152 1.0
e 147 215 1.0
e 147 101 18.0
e 148 269 1.0
e 148 7 1.0
e 148 221 1.0
e 148 122 47.0
e 148 275 1.0
e 148 132 1.0
e 148 260 1.0
e 148 261 1.0
e 149 55 47.0
e 149 267 21.0
e 149 70 18.0
e 149 170 34.0
e 149 190 48.0
e 149 49 34.0
e 149 198 29.0
e 149 1 9.0
e 150 237 5.0
e 150 107 1.0
e 150 29 1.0
e 150 265 1.0
e 150 185 42.0
e 150 218 1.0
e 150 296 1.0
e 150 73 1.0
e 151 256 1.0
e 151 224 1.0
e 151 154 1.0
e 151 155 1.0
e 151 148 1.0
e 151 193 1.0
e 151 264 1.0
e 152 80 1.0
e 152 234 1.0
e 152 304 1.0
e 152 125 1.0
e 152 284 1.0
e 152 144 49.0
e 152 76 1.0
e 152 163 1.0
e 153 79 25.0
e 153 129 1.0
e 153 81 1.0
e 153 204 1.0
e 153 229 1.0
e 153 37 1.0
e 153 243 1.0
e 153 83 1.0
e 154 205 25.0
e 154 77 10.0
e 154 56 1.0
e 154 68 10.0
e 154 210 1.0
e 154 213 33.0
e 154 134 34.0
e 154 270 38.0
e 155 281 16.0
e 155 172 43.0
e 155 124 1.0
e 155 62 49.0
e 155 48 1.0
e 155 273 1.0
e 155 34 1.0
e 155 292 1.0
e 156 117 1.0
e 156 224 1.0
e 156 225 49.0
e 156 251 43.0
e 156 130 2.0
e 156 110 1.0
e 156 246 1.0
e 157 278 31.0
e 157 10 43.0
e 157 37 48.0
e 157 144 6.0
e 157 59 1.0
e 157 34 1.0
e 157 129 7.0
e 157 178 27.0
e 158 89 20.0
e 158 170 1.0
e 158 99 1.0
e 158 287 23.0
e 158 81 1.0
e 158 26 1.0
e 158 37 1.0
e 158 259 33.0
e 159 200 1.0
e 159 45 1.0
e 159 112 37.0
e 159 303 47.0
e 159 285 1.0
e 159 136 1.0
e 159 99 1.0
e 159 93 1.0
e 160 280 2.0
e 160 126 2.0
e 160 275 1.0
e 160 239 1.0
e 160 39 1.0
e 160 115 2.0
e 160 17 1.0
e 160 60 1.0
e 161 233 1.0
e 161 137 1.0
e 161 305 1.0
e 161 9 1.0
e 161 144 34.0
e 161 318 2.0
e 161 127 1.0
e 161 152 1.0
e 162 140 38.0
e 162 195 47.0
e 162 266 23.0
e 162 259 41.0
e 162 181 1.0
e 162 141 1.0
e 162 239 18.0
e 162 206 1.0
e 163 264 1.0
e 163 96 1.0
e 163 191 1.0
e 163 262 1.0
e 163 144 36.0
e 163 236 2.0
e 163 73 1.0
e 163 194 42.0
e 164 299 32.0
e 164 24 39.0
e 164 169 1.0
e 164 191 29.0
e 164 133 19.0
e 164 234 25.0
e 164 227 21.0
e 165 134 34.0
e 165 118 1.0
e 165 278 1.0
e 165 157 46.0
e 165 303 42.0
e 165 90 5.0
e 165 297 1.0
e 165 6 1.0
e 166 274 12.0
e 166 213 17.0
e 166 77 13.0
e 166 264 1.0
e 166 25 1.0
e 166 88 1.0
e 166 204 1.0
e 166 309 1.0
e 167 79 38.0
e 167 139 1.0
e 167 138 1.0
e 167 202 1.0
e 167 298 1.0
e 167 52 1.0
e 167 142 1.0
e 167 9 1.0
e 168 93 1.0
e 168 259 19.0
e 168 232 1.0
e 168 0 17.0
e 168 171 1.0
e 168 107 1.0
e 168 237 2.0
e 168 273 1.0
e 169 280 1.0
e 169 38 1.0
e 169 17 1.0
e 169 6 1.0
e 169 272 1.0
e 169 186 1.0
e 169 273 1.0
e 169 168 1.0
e 170 285 1.0
e 170 204 1.0
e 170 295 1.0
e 170 187 2.0
e 170 163 1.0
e 170 310 1.0
e 170 246 1.0
e 170 200 1.0
e 171 45 1.0
e 171 271 45.0
e 171 255 1.0
e 171 294 1.0
e 171 133 18.0
e 171 254 1.0
e 171 48 2.0
e 171 238 44.0
e 172 66 6.0
e 172 278 45.0
e 172 24 49.0
e 172 265 32.0
e 172 127 28.0
e 172 76 19.0
e 172 232 6.0
e 172 177 26.0
e 173 280 49.0
e 173 219 27.0
e 173 132 37.0
e 173 85 11.0
e 173 156 48.0
e 173 38 5.0
e 173 100 34.0
e 173 185 44.0
e 174 153 1.0
e 174 248 48.0
e 174 175 34.0
e 174 134 10.0
e 174 314 1.0
e 174 66 1.0
e 174 83 1.0
e 175 216 21.0
e 175 261 4.0
e 175 202 49.0
e 175 310 11.0
e 175 242 20.0
e 175 121 24.0
e 175 291 5.0
e 175 20 13.0
e 176 269 1.0
e 176 98 1.0
e 176 193 1.0
e 176 273 1.0
e 176 284 1.0
e 176 89 39.0
e 176 120 1.0
e 176 85 1.0
e 177 226 31.0
e 177 46 2.0
e 177 91 1.0
e 177 24 1.0
e 177 276 1.0
e 177 289 1.0
e 177 195 32.0
e 178 107 2.0
e 178 291 1.0
e 178 36 1.0
e 178 236 42.0
e 178 275 1.0
e 178 296 1.0
e 178 82 1.0
e 178 65 1.0
e 179 246 1.0
e 179 279 1.0
e 179 162 1.0
e 179 313 1.0
e 179 154 1.0
e 179 174 1.0
e 179 184 1.0
e 179 190 1.0
e 180 127 1.0
e 180 317 1.0
e 180 45 1.0
e 180 222 1.0
e 180 46 1.0
e 180 107 2.0
e 180 2 1.0
e 180 223 1.0
e 181 255 2.0
e 181 133 36.0
e 181 202 1.0
e 181 199 1.0
e 181 170 1.0
e 181 54 1.0
e 181 235 3.0
e 181 262 2.0
e 182 159 1.0
e 182 52 1.0
e 182 123 3.0
e 182 16 1.0
e 182 111 1.0
e 182 119 1.0
e 182 106 1.0
e 182 30 1.0
e 183 269 44.0
e 183 91 41.0
e 183 224 29.0
e 183 292 22.0
e 183 289 21.0
e 183 199 35.0
e 183 221 31.0
e 183 1 26.0
e 184 247 1.0
e 184 172 37.0
e 184 317 1.0
e 184 67 1.0
e 184 17 1.0
e 184 5 1.0
e 184 298 1.0
e 184 64 1.0
e 185 277 43.0
e 185 51 26.0
e 185 300 39.0
e 185 146 2.0
e 185 194 21.0
e 185 297 7.0
e 185 10 34.0
e 185 5 1.0
e 186 234 1.0
e 186 164 29.0
e 186 190 1.0
e 186 316 21.0
e 186 183 30.0
e 186 62 15.0
e 186 278 1.0
e 186 263 10.0
e 187 308 14.0
e 187 232 36.0
e 187 184 23.0
e 187 191 4.0
e 187 101 25.0
e 187 119 31.0
e 187 235 10.0
e 187 62 33.0
e 188 295 1.0
e 188 191 1.0
e 188 246 1.0
e 188 184 1.0
e 188 105 2.0
e 188 263 3.0
e 188 202 1.0
e 188 216 1.0
e 189 237 19.0
e 189 142 1.0
e 189 1 18.0
e 189 315 1.0
e 189 14 1.0
e 189 141 43.0
e 189 287 21.0
e 189 176 1.0
e 190 310 1.0
e 190 168 1.0
e 190 153 1.0
e 190 123 26.0
e 190 308 14.0
e 190 193 1.0
e 191 103 1.0
e 191 260 1.0
e 191 116 1.0
e 191 233 1.0
e 191 11 1.0
e 191 83 1.0
e 191 87 1.0
e 191 115 1.0
e 192 152 1.0
e 192 138 1.0
e 192 90 37.0
e 192 169 2.0
e 192 124 2.0
e 192 288 1.0
e 192 21 1.0
e 192 81 2.0
e 193 214 1.0
e 193 260 1.0
e 193 236 34.0
e 193 83 1.0
e 193 253 1.0
e 193 235 1.0
e 193 10 1.0
e 193 174 1.0
e 194 196 12.0
e 194 224 29.0
e 194 235 39.0
e 194 187 18.0
e 194 182 9.0
e 194 180 45.0
e 194 19 6.0
e 194 89 42.0
e 195 108 24.0
e 195 260 29.0
e 195 84 8.0
e 195 47 5.0
e 195 283 16.0
e 195 137 33.0
e 195 158 43.0
e 195 55 43.0
e 196 98 1.0
e 196 271 16.0
e 196 315 1.0
e 196 179 1.0
e 196 87 1.0
e 196 306 1.0
e 196 244 1.0
e 196 20 1.0
e 197 96 1.0
e 197 66 1.0
e 197 45 1.0
e 197 148 1.0
e 197 67 1.0
e 197 31 46.0
e 197 190 1.0
e 197 239 1.0
e 198 157 42.0
e 198 160 2.0
e 198 224 1.0
e 198 199 1.0
e 198 55 1.0
e 198 51 1.0
e 198 318 1.0
e 198 258 1.0
e 199 139 1.0
e 199 67 1.0
e 199 207 36.0
e 199 131 15.0
e 199 73 1.0
e 199 148 1.0
e 199 236 1.0
e 199 43 1.0
e 200 231 48.0
e 200 229 1.0
e 200 178 1.0
e 200 78 1.0
e 200 130 1.0
e 200 31 49.0
e 200 138 1.0
e 200 271 20.0
e 201 261 1.0
e 201 78 1.0
e 201 221 1.0
e 201 230 37.0
e 201 104 1.0
e 201 304 1.0
e 201 107 1.0
e 201 140 46.0
e 202 279 1.0
e 202 158 1.0
e 202 4 1.0
e 202 61 41.0
e 202 109 1.0
e 202 235 1.0
e 202 59 1.0
e 202 207 41.0
e 203 173 43.0
e 203 55 11.0
e 203 169 6.0
e 203 294 38.0
e 203 223 20.0
e 203 265 7.0
e 203 26 22.0
e 203 33 38.0
e 204 102 1.0
e 204 73 1.0
e 204 194 47.0
e 204 70 1.0
e 204 19 1.0
e 204 266 8.0
e 204 200 1.0
e 204 202 1.0
e 205 240 25.0
e 205 217 34.0
e 205 286 29.0
e 205 200 49.0
e 205 122 32.0
e 205 317 27.0
e 205 296 31.0
e 205 292 33.0
e 206 260 1.0
e 206 264 1.0
e 206 37 1.0
e 206 288 1.0
e 206 223 1.0
e 206 108 1.0
e 206 229 1.0
e 206 96 1.0
e 207 152 7.0
e 207 259 40.0
e 207 54 5.0
e 207 110 26.0
e 207 74 12.0
e 207 279 32.0
e 207 258 11.0
e 207 97 40.0
e 208 19 1.0
e 208 222 1.0
e 208 83 1.0
e 208 315 1.0
e 208 100 1.0
e 208 15 1.0
e 208 199 1.0
e 208 69 24.0
e 209 309 41.0
e 209 290 41.0
e 209 275 8.0
e 209 241 23.0
e 209 66 42.0
e 209 140 33.0
e 209 196 6.0
e 209 178 1.0
e 210 77 43.0
e 210 161 1.0
e 210 36 1.0
e 210 230 5.0
e 210 58 36.0
e 210 168 1.0
e 210 203 35.0
e 210 40 1.0
e 211 260 1.0
e 211 117 1.0
e 211 86 1.0
e 211 192 1.0
e 211 120 1.0
e 211 21 2.0
e 211 129 1.0
e 211 46 1.0
e 212 123 31.0
e 212 247 10.0
e 212 57 36.0
e 212 206 27.0
e 212 231 9.0
e 212 221 10.0
e 212 15 25.0
e 212 139 47.0
e 213 301 41.0
e 213 206 39.0
e 213 244 48.0
e 213 64 16.0
e 213 180 36.0
e 213 158 14.0
e 213 134 37.0
e 213 60 37.0
e 214 224 1.0
e 214 318 1.0
e 214 108 1.0
e 214 117 1.0
e 214 262 1.0
e 214 276 1.0
e 214 160 1.0
e 214 294 1.0
e 215 298 1.0
e 215 268 1.0
e 215 100 1.0
e 215 165 1.0
e 215 305 1.0
e 215 264 1.0
e 215 230 29.0
e 215 79 2.0
e 216 275 1.0
e 216 289 1.0
e 216 247 1.0
e 216 148 1.0
e 216 265 1.0
e 216 71 1.0
e 216 210 1.0
e 216 178 1.0
e 217 298 1.0
e 217 308 19.0
e 217 316 49.0
e 217 248 14.0
e 217 313 1.0
e 217 294 1.0
e 217 82 1.0
e 217 280 1.0
e 218 181 2.0
e 218 212 25.0
e 218 18 1.0
e 218 250 1.0
e 218 89 30.0
e 218 105 3.0
e 218 245 29.0
e 218 155 1.0
e 219 57 25.0
e 219 77 47.0
e 219 44 29.0
e 219 305 41.0
e 219 121 2.0
e 219 315 4.0
e 219 301 11.0
e 219 75 44.0
e 220 70 47.0
e 220 166 23.0
e 220 284 11.0
e 220 29 22.0
e 220 7 15.0
e 220 237 10.0
e 220 188 15.0
e 220 250 14.0
e 221 242 1.0
e 221 281 29.0
e 221 305 1.0
e 221 171 1.0
e 221 174 1.0
e 221 232 1.0
e 221 159 1.0
e 222 56 1.0
e 222 262 1.0
e 222 63 21.0
e 222 71 1.0
e 222 213 36.0
e 222 221 1.0
e 222 242 1.0
e 222 195 14.0
e 223 193 1.0
e 223 89 21.0
e 223 216 1.0
e 223 116 1.0
e 223 170 1.0
e 223 32 1.0
e 223 254 1.0
e 223 135 1.0
e 224 186 1.0
e 224 133 27.0
e 224 92 2.0
e 224 66 1.0
e 224 78 1.0
e 224 132 1.0
e 224 60 1.0
e 225 36 2.0
e 225 291 36.0
e 225 248 34.0
e 225 125 31.0
e 225 259 45.0
e 225 157 42.0
e 225 217 26.0
e 225 223 3.0
e 226 247 27.0
e 226 85 4.0
e 226 265 29.0
e 226 307 28.0
e 226 248 18.0
e 226 62 9.0
e 226 264 42.0
e 226 121 6.0
e 227 46 1.0
e 227 96 1.0
e 227 190 1.0
e 227 137 1.0
e 227 238 37.0
e 227 239 12.0
e 227 277 1.0
e 227 291 1.0
e 228 24 41.0
e 228 87 22.0
e 228 7 17.0
e 228 277 39.0
e 228 138 48.0
e 228 3 2.0
e 228 196 47.0
e 228 158 44.0
e 229 164 25.0
e 229 180 1.0
e 229 186 1.0
e 229 182 1.0
e 229 264 1.0
e 229 107 1.0
e 229 185 25.0
e 229 77 15.0
e 230 243 13.0
e 230 273 12.0
e 230 21 38.0
e 230 3 24.0
e 230 305 10.0
e 230 278 14.0
e 230 35 38.0
e 230 74 2.0
e 231 206 5.0
e 231 228 18.0
e 231 133 12.0
e 231 45 18.0
e 231 309 23.0
e 231 111 27.0
e 231 161 48.0
e 231 194 29.0
e 232 202 1.0
e 232 214 1.0
e 232 65 1.0
e 232 295 1.0
e 232 236 21.0
e 232 179 1.0
e 232 200 1.0
e 232 72 1.0
e 233 255 1.0
e 233 249 1.0
e 233 226 2.0
e 233 11 1.0
e 233 29 1.0
e 233 124 1.0
e 233 77 40.0
e 233 156 1.0
e 234 220 5.0
e 234 157 28.0
e 234 311 1.0
e 234 30 1.0
e 234 229 1.0
e 234 251 4.0
e 234 243 1.0
e 234 204 1.0
e 235 232 1.0
e 235 102 1.0
e 235 286 1.0
e 235 110 1.0
e 235 4 1.0
e 235 97 1.0
e 235 41 17.0
e 235 207 9.0
e 236 278 30.0
e 236 71 21.0
e 236 113 6.0
e 236 154 35.0
e 236 255 19.0
e 236 97 6.0
e 236 177 16.0
e 236 124 25.0
e 237 183 26.0
e 237 200 33.0
e 237 274 41.0
e 237 227 40.0
e 237 103 43.0
e 237 162 34.0
e 237 111 46.0
e 237 173 12.0
e 238 191 13.0
e 238 45 12.0
e 238 215 12.0
e 238 313 23.0
e 238 90 20.0
e 238 208 40.0
e 238 268 49.0
e 238 195 23.0
e 239 156 37.0
e 239 132 13.0
e 239 272 3.0
e 239 300 14.0
e 239 122 29.0
e 239 159 40.0
e 239 126 25.0
e 240 150 6.0
e 240 185 28.0
e 240 155 33.0
e 240 142 10.0
e 240 290 29.0
e 240 220 35.0
e 240 261 2.0
e 240 170 41.0
e 241 267 1.0
e 241 309 1.0
e 241 43 1.0
e 241 164 48.0
e 241 316 28.0
e 241 119 1.0
e 241 236 11.0
e 241 80 1.0
e 242 140 30.0
e 242 306 1.0
e 242 121 1.0
e 242 241 1.0
e 242 82 1.0
e 242 197 1.0
e 242 199 1.0
e 242 31 43.0
e 243 217 1.0
e 243 169 1.0
e 243 206 1.0
e 243 30 1.0
e 243 263 6.0
e 243 126 1.0
e 243 58 20.0
e 244 195 31.0
e 244 271 41.0
e 244 35 1.0
e 244 15 1.0
e 244 146 1.0
e 244 179 1.0
e 244 258 1.0
e 244 5 1.0
e 245 302 35.0
e 245 217 39.0
e 245 230 5.0
e 245 223 15.0
e 245 144 43.0
e 245 103 47.0
e 245 35 14.0
e 245 254 24.0
e 246 154 1.0
e 246 255 1.0
e 246 85 1.0
e 246 124 1.0
e 246 71 1.0
e 246 54 1.0
e 246 192 2.0
e 246 274 5.0
e 247 130 3.0
e 247 86 1.0
e 247 215 1.0
e 247 290 1.0
e 247 158 1.0
e 247 287 18.0
e 247 279 1.0
e 247 95 19.0
e 248 308 19.0
e 248 178 21.0
e 248 85 2.0
e 248 70 12.0
e 248 93 49.0
e 248 72 16.0
e 248 40 25.0
e 248 191 19.0
e 249 238 40.0
e 249 80 2.0
e 249 88 1.0
e 249 263 44.0
e 249 89 25.0
e 249 96 1.0
e 249 48 2.0
e 249 274 1.0
e 250 155 1.0
e 250 142 1.0
e 250 121 1.0
e 250 213 14.0
e 250 34 1.0
e 250 267 1.0
e 250 285 1.0
e 250 109 1.0
e 251 99 35.0
e 251 237 22.0
e 251 301 15.0
e 251 43 4.0
e 251 13 16.0
e 251 223 6.0
e 251 206 26.0
e 251 225 45.0
e 252 114 1.0
e 252 123 44.0
e 252 59 1.0
e 252 285 1.0
e 252 15 1.0
e 252 106 1.0
e 252 168 1.0
e 252 207 4.0
e 253 225 19.0
e 253 59 1.0
e 253 145 1.0
e 253 73 1.0
e 253 226 22.0
e 253 236 39.0
e 253 24 1.0
e 254 57 38.0
e 254 293 1.0
e 254 300 35.0
e 254 7 1.0
e 254 43 1.0
e 254 219 20.0
e 254 106 1.0
e 254 290 1.0
e 255 89 41.0
e 255 32 1.0
e 255 214 1.0
e 255 124 1.0
e 255 225 30.0
e 255 312 1.0
e 255 4 1.0
e 255 16 1.0
e 256 1 4.0
e 256 211 1.0
e 256 140 48.0
e 256 16 1.0
e 256 11 1.0
e 256 128 1.0
e 256 203 47.0
e 257 166 1.0
e 257 256 1.0
e 257 146 1.0
e 257 269 1.0
e 257 216 1.0
e 257 112 33.0
e 257 95 13.0
e 257 198 1.0
e 258 166 1.0
e 258 174 1.0
e 258 16 1.0
e 258 188 1.0
e 258 307 31.0
e 258 112 33.0
e 258 137 1.0
e 259 292 29.0
e 259 228 30.0
e 259 258 31.0
e 259 315 7.0
e 259 24 44.0
e 259 255 36.0
e 259 88 25.0
e 259 0 1.0
e 260 248 30.0
e 260 78 1.0
e 260 202 1.0
e 260 150 1.0
e 260 59 1.0
e 260 300 16.0
e 260 0 38.0
e 260 174 1.0
e 261 241 1.0
e 261 69 18.0
e 261 212 44.0
e 261 313 1.0
e 261 105 1.0
e 261 300 46.0
e 261 264 1.0
e 261 165 1.0
e 262 87 1.0
e 262 4 1.0
e 262 296 1.0
e 262 208 1.0
e 262 40 1.0
e 262 257 1.0
e 262 149 12.0
e 262 313 1.0
e 263 93 48.0
e 263 29 39.0
e 263 251 6.0
e 263 6 5.0
e 263 229 43.0
e 263 232 20.0
e 263 219 18.0
e 263 287 22.0
e 264 110 1.0
e 264 217 1.0
e 264 71 1.0
e 264 222 1.0
e 264 312 1.0
e 264 125 1.0
e 264 276 1.0
e 264 200 1.0
e 265 198 1.0
e 265 113 6.0
e 265 309 1.0
e 265 96 1.0
e 265 162 1.0
e 265 137 1.0
e 265 243 1.0
e 265 20 1.0
e 266 312 38.0
e 266 300 11.0
e 266 177 43.0
e 266 53 23.0
e 266 290 17.0
e 266 59 8.0
e 266 143 13.0
e 267 237 29.0
e 267 238 17.0
e 267 31 9.0
e 267 9 1.0
e 267 176 1.0
e 267 99 1.0
e 267 58 17.0
e 267 256 1.0
e 268 211 1.0
e 268 92 2.0
e 268 3 1.0
e 268 55 1.0
e 268 227 1.0
e 268 52 1.0
e 268 306 1.0
e 268 20 1.0
e 269 33 7.0
e 269 41 16.0
e 269 79 14.0
e 269 145 1.0
e 269 203 35.0
e 269 267 1.0
e 269 285 1.0
e 269 186 1.0
e 270 97 35.0
e 270 231 34.0
e 270 153 13.0
e 270 135 25.0
e 270 312 7.0
e 270 170 43.0
e 270 226 27.0
e 270 208 48.0
e 271 184 30.0
e 271 172 3.0
e 271 16 7.0
e 271 6 37.0
e 271 263 46.0
e 271 149 22.0
e 271 235 48.0
e 271 237 33.0
e 272 231 16.0
e 272 149 31.0
e 272 199 1.0
e 272 87 1.0
e 272 225 41.0
e 272 151 1.0
e 272 16 2.0
e 272 193 1.0
e 273 290 1.0
e 273 10 1.0
e 273 145 1.0
e 273 2 1.0
e 273 297 1.0
e 273 182 1.0
e 273 226 49.0
e 273 118 1.0
e 274 248 8.0
e 274 72 30.0
e 274 131 39.0
e 274 163 42.0
e 274 229 8.0
e 274 190 16.0
e 274 255 48.0
e 274 117 10.0
e 275 290 1.0
e 275 286 1.0
e 275 41 18.0
e 275 100 1.0
e 275 254 1.0
e 275 153 1.0
e 275 20 1.0
e 275 245 1.0
e 276 200 1.0
e 276 137 1.0
e 276 13 1.0
e 276 122 10.0
e 276 83 1.0
e 276 266 36.0
e 276 142 1.0
e 276 251 28.0
e 277 137 1.0
e 277 54 1.0
e 277 186 1.0
e 277 294 1.0
e 277 132 1.0
e 277 302 20.0
e 277 55 1.0
e 277 290 1.0
e 278 55 1.0
e 278 34 1.0
e 278 200 1.0
e 278 36 1.0
e 278 203 31.0
e 278 104 1.0
e 278 13 1.0
e 278 48 2.0
e 279 225 17.0
e 279 170 1.0
e 279 30 1.0
e 279 36 1.0
e 279 215 1.0
e 279 67 1.0
e 279 108 1.0
e 279 174 1.0
e 280 13 1.0
e 280 170 1.0
e 280 312 1.0
e 280 59 1.0
e 280 32 1.0
e 280 200 1.0
e 280 161 1.0
e 281 163 38.0
e 281 20 5.0
e 281 82 9.0
e 281 306 38.0
e 281 220 12.0
e 281 267 18.0
e 281 196 1.0
e 281 104 40.0
e 282 5 1.0
e 282 205 26.0
e 282 253 1.0
e 282 67 1.0
e 282 277 1.0
e 282 315 1.0
e 282 45 1.0
e 283 77 9.0
e 283 238 35.0
e 283 144 17.0
e 283 62 23.0
e 283 180 1.0
e 283 198 1.0
e 283 304 1.0
e 283 116 1.0
e 284 136 1.0
e 284 234 1.0
e 284 163 1.0
e 284 33 19.0
e 284 304 1.0
e 284 28 1.0
e 284 85 1.0
e 284 253 1.0
e 285 75 1.0
e 285 92 2.0
e 285 188 1.0
e 285 274 11.0
e 285 131 47.0
e 285 76 1.0
e 285 315 1.0
e 285 240 38.0
e 286 126 1.0
e 286 56 1.0
e 286 174 1.0
e 286 222 1.0
e 286 308 37.0
e 286 317 1.0
e 286 9 1.0
e 286 187 15.0
e 287 162 8.0
e 287 187 1.0
e 287 215 33.0
e 287 226 15.0
e 287 258 35.0
e 287 64 35.0
e 288 157 44.0
e 288 208 1.0
e 288 61 30.0
e 288 77 43.0
e 288 239 16.0
e 288 232 1.0
e 288 260 1.0
e 288 202 1.0
e 289 280 1.0
e 289 28 1.0
e 289 132 1.0
e 289 278 1.0
e 289 172 4.0
e 289 308 16.0
e 289 291 1.0
e 290 60 1.0
e 290 242 1.0
e 290 21 1.0
e 290 8 1.0
e 290 43 1.0
e 290 292 1.0
e 290 17 1.0
e 290 123 30.0
e 291 211 2.0
e 291 243 1.0
e 291 88 1.0
e 291 187 39.0
e 291 233 1.0
e 291 129 1.0
e 291 306 1.0
e 292 278 1.0
e 292 273 1.0
e 292 121 1.0
e 292 172 6.0
e 292 262 1.0
e 292 137 1.0
e 292 132 1.0
e 292 91 1.0
e 293 272 1.0
e 293 84 1.0
e 293 313 1.0
e 293 221 1.0
e 293 177 1.0
e 293 251 8.0
e 293 118 1.0
e 293 0 49.0
e 294 102 1.0
e 294 12 19.0
e 294 58 3.0
e 294 37 1.0
e 294 22 49.0
e 294 287 16.0
e 294 316 18.0
e 294 123 3.0
e 295 242 1.0
e 295 218 1.0
e 295 186 1.0
e 295 256 1.0
e 295 152 1.0
e 295 316 21.0
e 295 95 19.0
e 295 192 1.0
e 296 225 9.0
e 296 30 1.0
e 296 145 1.0
e 296 260 1.0
e 296 218 1.0
e 296 240 47.0
e 296 220 16.0
e 297 51 1.0
e 297 111 1.0
e 297 36 1.0
e 297 264 1.0
e 297 170 1.0
e 297 103 1.0
e 297 148 1.0
e 297 27 21.0
e 298 229 1.0
e 298 15 1.0
e 298 18 1.0
e 298 83 1.0
e 298 275 1.0
e 298 313 1.0
e 298 277 1.0
e 298 307 32.0
e 299 276 1.0
e 299 191 1.0
e 299 239 19.0
e 299 162 1.0
e 299 288 1.0
e 299 285 1.0
e 299 160 2.0
e 299 75 1.0
e 300 100 46.0
e 300 209 24.0
e 300 52 31.0
e 300 72 32.0
e 300 224 22.0
e 300 152 36.0
e 300 308 6.0
e 300 116 3.0
e 301 260 1.0
e 301 114 1.0
e 301 18 1.0
e 301 287 28.0
e 301 50 6.0
e 301 183 49.0
e 301 41 9.0
e 302 304 39.0
e 302 290 19.0
e 302 248 41.0
e 302 208 39.0
e 302 71 35.0
e 302 227 45.0
e 302 249 30.0
e 302 231 11.0
e 303 39 42.0
e 303 84 34.0
e 303 259 38.0
e 303 94 35.0
e 303 63 42.0
e 303 315 28.0
e 303 77 36.0
e 303 142 47.0
e 304 77 24.0
e 304 245 27.0
e 304 268 1.0
e 304 13 1.0
e 304 261 1.0
e 304 3 1.0
e 304 15 1.0
e 305 254 1.0
e 305 58 25.0
e 305 163 1.0
e 305 139 1.0
e 305 178 1.0
e 305 66 1.0
e 305 174 1.0
e 306 3 1.0
e 306 15 1.0
e 306 170 1.0
e 306 188 1.0
e 306 250 1.0
e 306 25 1.0
e 306 213 1.0
e 307 280 15.0
e 307 299 40.0
e 307 281 19.0
e 307 270 15.0
e 307 92 5.0
e 307 67 49.0
e 307 275 41.0
e 307 254 21.0
e 308 216 46.0
e 308 242 11.0
e 308 186 18.0
e 308 241 11.0
e 308 69 4.0
e 308 9 25.0
e 308 150 44.0
e 309 110 1.0
e 309 183 45.0
e 309 17 1.0
e 309 316 29.0
e 309 150 1.0
e 309 24 1.0
e 309 179 1.0
e 309 11 1.0
e 310 203 40.0
e 310 26 1.0
e 310 208 1.0
e 310 74 1.0
e 310 111 1.0
e 310 135 1.0
e 310 258 1.0
e 310 151 1.0
e 311 13 1.0
e 311 200 1.0
e 311 270 19.0
e 311 70 1.0
e 311 187 34.0
e 311 134 11.0
e 311 281 7.0
e 311 116 1.0
e 312 130 1.0
e 312 238 37.0
e 312 241 1.0
e 312 104 1.0
e 312 297 1.0
e 312 279 1.0
e 312 102 1.0
e 312 193 1.0
e 313 10 1.0
e 313 21 1.0
e 313 1 7.0
e 313 264 1.0
e 313 59 1.0
e 313 144 37.0
e 313 0 20.0
e 314 53 1.0
e 314 146 1.0
e 314 198 1.0
e 314 152 1.0
e 314 63 1.0
e 314 280 1.0
e 314 228 9.0
e 314 268 1.0
e 315 180 1.0
e 315 296 1.0
e 315 3 1.0
e 315 17 1.0
e 315 144 26.0
e 315 202 1.0
e 315 273 1.0
e 315 226 16.0
e 316 46 43.0
e 316 126 27.0
e 316 39 29.0
e 316 128 13.0
e 316 77 10.0
e 316 73 3.0
e 316 157 8.0
e 316 219 11.0
e 317 281 20.0
e 317 57 4.0
e 317 45 1.0
e 317 142 1.0
e 317 27 28.0
e 317 32 1.0
e 317 221 1.0
e 317 54 1.0
e 318 218 2.0
e 318 153 1.0
e 318 76 1.0
e 318 301 1.0
e 318 244 1.0
e 318 88 1.0
e 318 3 2.0
e 318 237 44.0
e 319 154 1.0
e 319 200 1.0
e 319 174 1.0
e 319 23 1.0
e 319 291 1.0
e 319 135 1.0
e 319 256 1.0
e 319 127 1.0
